c instance by G2
c solution = 0011000011101
c Known solution cost is 505 
p cnf 13 30
w 64 45 94 41 10 52 71 19 41 1 44 6 17
-13 3 1 0
-5 -4 -10 0
-2 -6 -5 0
7 -2 -4 0
2 -4 -7 0
5 8 9 0
-3 11 -9 0
11 -13 12 0
10 6 3 0
-5 -2 12 0
-6 -10 1 0
-11 9 1 0
11 10 -12 0
6 -11 -8 0
-2 6 -9 0
3 -2 -12 0
-10 12 -8 0
4 2 8 0
10 -3 -12 0
6 -12 -5 0
-10 9 -7 0
-3 -7 -8 0
9 2 -11 0
10 -3 8 0
-11 10 5 0
12 2 13 0
1 -12 -4 0
-1 -4 -11 0
-12 -3 8 0
3 6 -12 0
